% Archivo de datos generado automáticamente
% MinExt - Minimización del Extremismo

n = 10;
m = 5;

% Distribución inicial de personas por opinión
p = [2, 1, 3, 2, 2];

% Valores de extremismo por opinión
ext = [0.026, 0.947, 0.838, 0.891, 0.037];

% Costos extra por mover hacia opinión inicialmente vacía
ce = [12.848, 6.085, 5.479, 14.536, 9.914];

% Matriz de costos de movimiento entre opiniones
c = array2d(1..m, 1..m, [0.0, 4.873, 2.57, 3.714, 0.458, 3.747, 0.0, 4.653, 3.229, 3.352, 1.127, 0.537, 0.0, 3.376, 2.36, 0.53, 4.584, 2.014, 0.0, 1.675, 0.713, 2.393, 0.907, 4.152, 0.0]);

% Restricciones de recursos
ct = 128.25;
maxM = 1;
